p cnf 1 349
 1 0
 1 0
 1 0
 1 0
 1 0
 1 0
 1 0
 1 0
-1 1 0
-1 1 0
-1 1 0
-1 1 0
-1 1 0
 1 0
 1 0
 1 0
-1 1 0
 1 0
 1 0
-1 1 0
-1 1 0
-1 1 0
-1 1 0
 1 0
 1 0
-1 1 0
 1 0
 1 0
-1 1 0
 1 0
-1 1 0
-1 1 0
 1 0
-1 1 0
-1 1 0
-1 1 0
-1 1 0
 1 0
-1 1 0
 1 0
 1 0
-1 1 0
-1 1 0
-1 1 0
 1 0
 1 0
 1 0
-1 1 0
-1 1 0
-1 1 0
-1 1 0
-1 1 0
 1 0
 1 0
-1 1 0
 1 0
 1 0
 1 0
-1 1 0
-1 1 0
 1 0
 1 0
-1 1 0
-1 1 0
-1 1 0
 1 0
 1 0
-1 1 0
 1 0
-1 1 0
-1 1 0
-1 1 0
 1 0
-1 1 0
-1 1 0
-1 1 0
 1 0
 1 0
-1 1 0
-1 1 0
-1 1 0
-1 1 0
-1 1 0
 1 0
 1 0
-1 1 0
-1 1 0
 1 0
 1 0
 1 0
 1 0
-1 1 0
-1 1 0
 1 0
 1 0
-1 1 0
-1 1 0
 1 0
-1 1 0
 1 0
 1 0
 1 0
 1 0
-1 1 0
 1 0
-1 1 0
-1 1 0
-1 1 0
 1 0
-1 1 0
 1 0
 1 0
-1 1 0
 1 0
 1 0
 1 0
-1 1 0
-1 1 0
 1 0
 1 0
-1 1 0
 1 0
 1 0
-1 1 0
-1 1 0
-1 1 0
-1 1 0
-1 1 0
-1 1 0
 1 0
-1 1 0
 1 0
-1 1 0
-1 1 0
-1 1 0
-1 1 0
 1 0
-1 1 0
-1 1 0
 1 0
 1 0
 1 0
-1 1 0
 1 0
 1 0
-1 1 0
-1 1 0
-1 1 0
-1 1 0
 1 0
-1 1 0
-1 1 0
-1 1 0
-1 1 0
-1 1 0
 1 0
 1 0
 1 0
 1 0
 1 0
 1 0
-1 1 0
-1 1 0
-1 1 0
 1 0
